n_res = 4;
rc = [ 12, 22, 11, 16 ];
n_tasks = 30;
d = [ 3, 8, 6, 5, 4, 1, 6, 10, 2, 5, 3, 8, 7, 1, 3, 2, 8, 4, 8, 2, 3, 10, 7, 8, 2, 10, 5, 1, 1, 9 ];
rr = [| 12, 12, 12, 12, 12, 12, 12, 12, 12, 12, 12, 12, 12, 12, 12, 12, 12, 12, 12, 12, 12, 12, 12, 12, 12, 12, 12, 12, 12, 12
      | 22, 22, 22, 22, 22, 22, 22, 22, 22, 22, 22, 22, 22, 22, 22, 22, 22, 22, 22, 22, 22, 22, 22, 22, 22, 22, 22, 22, 22, 22
      | 11, 11, 11, 11, 11, 11, 11, 11, 11, 11, 11, 11, 11, 11, 11, 11, 11, 11, 11, 11, 11, 11, 11, 11, 11, 11, 11, 11, 11, 11
      | 16, 16, 16, 16, 16, 16, 16, 16, 16, 16, 16, 16, 16, 16, 16, 16, 16, 16, 16, 16, 16, 16, 16, 16, 16, 16, 16, 16, 16, 16|];
suc = [ { 5, 7, 24 },
       { 30 },
       { 4, 8, 12 },
       { 5, 6, 22 },
       { 15, 16, 21 },
       { 10, 15, 27 },
       { 8, 14, 20 },
       { 9, 23 },
       { 16, 18, 21 },
       { 11 },
       { 18, 26 },
       { 13, 19, 25 },
       { 16, 28 },
       { 28 },
       { 17, 25 },
       { 17, 26, 30 },
       { 29 },
       { 29 },
       { 20 },
       { 21, 23 },
       { 30 },
       { 23, 24 },
       { 27 },
       { 25, 27 },
       { 26 },
       { 29 },
       { 28 },
       {  },
       {  },
       {  } ];
